c NeuroCodeBench 2.0 CNF formula with verdict Sat
p cnf 7 30
-5 -6 -7 0
6 3 -5 -1 0
3 1 0
5 4 0
5 2 3 1 -6 -4 0
7 2 1 3 -6 -5 0
4 7 1 5 -3 0
6 -3 -1 0
2 -4 0
7 -3 -1 0
4 0
7 3 2 -6 -5 -1 0
1 7 5 -4 -6 0
1 4 -5 0
6 -4 -1 0
2 4 0
4 5 7 6 -2 -1 0
3 1 7 0
4 5 -1 -2 0
5 3 -1 0
5 4 -3 0
3 -7 0
5 4 7 2 0
6 0
1 -2 -5 -6 0
6 2 -7 -4 -3 0
6 7 -2 -1 -3 0
5 1 -2 -7 -6 -4 0
7 4 2 -1 -3 -5 0
4 2 7 6 5 -3 0
